
Gurobi 10.0.1 (win64) logging started Thu Jul 13 17:43:40 2023

Set parameter LogFile to value "results-360s-mipfocus3/log/MetalMeca_deadline.log"
Gurobi Optimizer version 10.0.1 build v10.0.1rc0 (win64)

CPU model: AMD Ryzen 7 3700X 8-Core Processor, instruction set [SSE2|AVX|AVX2]
Thread count: 8 physical cores, 16 logical processors, using up to 16 threads

Optimize a model with 18677 rows, 45917 columns and 88357 nonzeros
Model fingerprint: 0x67de789c
Model has 1 quadratic constraint
Variable types: 0 continuous, 45917 integer (45373 binary)
Coefficient statistics:
  Matrix range     [1e+00, 1e+08]
  QMatrix range    [1e+00, 1e+00]
  QLMatrix range   [1e+00, 2e+04]
  Objective range  [1e+00, 1e+00]
  Bounds range     [1e+00, 1e+00]
  RHS range        [1e+00, 3e+08]
Presolve removed 948 rows and 40525 columns
Presolve time: 0.17s
Presolved: 17771 rows, 5433 columns, 77903 nonzeros
Variable types: 0 continuous, 5433 integer (4848 binary)
Root relaxation presolve removed 73 rows and 0 columns
Root relaxation presolved: 17698 rows, 5506 columns, 77757 nonzeros


Root relaxation: objective 0.000000e+00, 2415 iterations, 0.09 seconds (0.11 work units)

    Nodes    |    Current Node    |     Objective Bounds      |     Work
 Expl Unexpl |  Obj  Depth IntInf | Incumbent    BestBd   Gap | It/Node Time

     0     0    0.00000    0  277          -    0.00000      -     -    1s
     0     0    0.00000    0  246          -    0.00000      -     -    1s
     0     0    0.00000    0  330          -    0.00000      -     -    3s

Cutting planes:
  Learned: 50
  Gomory: 1
  Cover: 11
  Implied bound: 14
  Projected implied bound: 12
  MIR: 1
  Flow cover: 306
  RLT: 18
  Relax-and-lift: 7

Explored 1 nodes (16211 simplex iterations) in 3.67 seconds (3.73 work units)
Thread count was 16 (of 16 available processors)

Solution count 0

Solve interrupted
Best objective -, best bound 0.000000000000e+00, gap -
Warning: variable name "b[job:0, stage:0, machine:18]" has a space
Warning: constraint name "precedence between 1,0 to 0,0 if x_[j,l,h,z,i]=1" has a space
Warning: to let Gurobi read it back, use rlp format
